unsat
(forall ((A (_ BitVec 3))
         (B (_ BitVec 16))
         (C (_ BitVec 24))
         (D (_ BitVec 8))
         (E (_ BitVec 1))
         (F (_ BitVec 1))
         (G (_ BitVec 4))
         (H (_ BitVec 1))
         (I (_ BitVec 8))
         (J (_ BitVec 8))
         (K (_ BitVec 4))
         (L (_ BitVec 1))
         (M (_ BitVec 27))
         (N (_ BitVec 1))
         (O (_ BitVec 5))
         (P (_ BitVec 32))
         (Q (_ BitVec 1))
         (R (_ BitVec 8))
         (S (_ BitVec 1))
         (T (_ BitVec 32))
         (U (_ BitVec 1))
         (V (_ BitVec 1))
         (W (_ BitVec 1))
         (X (_ BitVec 1))
         (Y (_ BitVec 8))
         (Z (_ BitVec 1))
         (A1 (_ BitVec 1)))
  (! (= (INV!slice!1 A B C D E F G H I J K L M N O P Q R S T U V W X Y Z A1)
        (or (not ((_ bit2bool 8) M)) ((_ bit2bool 0) O)))
     :weight 0))
